NAME melting_srl_ilp
* Max problem is converted into Min one
ROWS
 N  OBJ
 L  constraint1_6136
 L  constraint1_6134
 L  constraint1_6138
 L  constraint1_6139
 L  constraint1_6137
 L  constraint1_6131
 L  constraint1_6135
 L  constraint1_6132
 L  constraint1_6133
 L  constraint1_5880
 L  constraint1_5881
 L  constraint1_3140
 L  constraint2_6130
 L  constraint2_6131
 L  constraint2_6132
 L  constraint2_6133
 L  constraint2_5880
 L  constraint2_5881
 L  constraint2_5882
 L  constraint2_5883
 L  constraint2_3140
 L  constraint2_3141
 L  constraint2_3142
 L  constraint2_3143
COLUMNS
    MARKER    'MARKER'                 'INTORG'
    Z_613_6_0  OBJ       -1.1718469617077851e-03
    Z_613_6_0  constraint1_6136  1
    Z_613_6_0  constraint2_6130  1
    Z_613_6_1  OBJ       -5.1635463575957340e-03
    Z_613_6_1  constraint1_6136  1
    Z_613_6_1  constraint2_6131  1
    Z_613_6_2  OBJ       -2.3455630608833128e-01
    Z_613_6_2  constraint1_6136  1
    Z_613_6_2  constraint2_6132  1
    Z_613_6_3  OBJ       -4.0865597996186977e-03
    Z_613_6_3  constraint1_6136  1
    Z_613_6_3  constraint2_6133  1
    Z_613_6_4  OBJ       -6.5502174079274655e-01
    Z_613_6_4  constraint1_6136  1
    Z_613_4_0  OBJ       -8.7750801474134867e-05
    Z_613_4_0  constraint1_6134  1
    Z_613_4_0  constraint2_6130  1
    Z_613_4_1  OBJ       -5.5240120062912297e-03
    Z_613_4_1  constraint1_6134  1
    Z_613_4_1  constraint2_6131  1
    Z_613_4_2  OBJ       -1.3459054687671562e-01
    Z_613_4_2  constraint1_6134  1
    Z_613_4_2  constraint2_6132  1
    Z_613_4_3  OBJ       -1.9861207677032301e-04
    Z_613_4_3  constraint1_6134  1
    Z_613_4_3  constraint2_6133  1
    Z_613_4_4  OBJ       -7.5959907823874873e-01
    Z_613_4_4  constraint1_6134  1
    Z_613_8_0  OBJ       -1.0513066516231849e-02
    Z_613_8_0  constraint1_6138  1
    Z_613_8_0  constraint2_6130  1
    Z_613_8_1  OBJ       -3.3091524760847746e-01
    Z_613_8_1  constraint1_6138  1
    Z_613_8_1  constraint2_6131  1
    Z_613_8_2  OBJ       -1.1362996318143016e-01
    Z_613_8_2  constraint1_6138  1
    Z_613_8_2  constraint2_6132  1
    Z_613_8_3  OBJ       -9.8214273187249602e-03
    Z_613_8_3  constraint1_6138  1
    Z_613_8_3  constraint2_6133  1
    Z_613_8_4  OBJ       -4.3512029537513564e-01
    Z_613_8_4  constraint1_6138  1
    Z_613_9_0  OBJ       -1.0758772860265617e-01
    Z_613_9_0  constraint1_6139  1
    Z_613_9_0  constraint2_6130  1
    Z_613_9_1  OBJ       -4.9378112471695884e-01
    Z_613_9_1  constraint1_6139  1
    Z_613_9_1  constraint2_6131  1
    Z_613_9_2  OBJ       -4.6385130244851629e-02
    Z_613_9_2  constraint1_6139  1
    Z_613_9_2  constraint2_6132  1
    Z_613_9_3  OBJ       -8.7357003371749001e-04
    Z_613_9_3  constraint1_6139  1
    Z_613_9_3  constraint2_6133  1
    Z_613_9_4  OBJ       -2.5137244640181600e-01
    Z_613_9_4  constraint1_6139  1
    Z_613_7_0  OBJ       -1.0513066516231849e-02
    Z_613_7_0  constraint1_6137  1
    Z_613_7_0  constraint2_6130  1
    Z_613_7_1  OBJ       -3.3091524760847746e-01
    Z_613_7_1  constraint1_6137  1
    Z_613_7_1  constraint2_6131  1
    Z_613_7_2  OBJ       -1.1362996318143016e-01
    Z_613_7_2  constraint1_6137  1
    Z_613_7_2  constraint2_6132  1
    Z_613_7_3  OBJ       -9.8214273187249602e-03
    Z_613_7_3  constraint1_6137  1
    Z_613_7_3  constraint2_6133  1
    Z_613_7_4  OBJ       -4.3512029537513564e-01
    Z_613_7_4  constraint1_6137  1
    Z_613_1_0  OBJ       -1.6324111860429227e-03
    Z_613_1_0  constraint1_6131  1
    Z_613_1_0  constraint2_6130  1
    Z_613_1_1  OBJ       -5.2515064184461930e-03
    Z_613_1_1  constraint1_6131  1
    Z_613_1_1  constraint2_6131  1
    Z_613_1_2  OBJ       -1.0277371852018909e-01
    Z_613_1_2  constraint1_6131  1
    Z_613_1_2  constraint2_6132  1
    Z_613_1_3  OBJ       -4.7339695005478525e-03
    Z_613_1_3  constraint1_6131  1
    Z_613_1_3  constraint2_6133  1
    Z_613_1_4  OBJ       -7.8560839437477392e-01
    Z_613_1_4  constraint1_6131  1
    Z_613_5_0  OBJ       -2.1216122578070342e-02
    Z_613_5_0  constraint1_6135  1
    Z_613_5_0  constraint2_6130  1
    Z_613_5_1  OBJ       -6.8139551674843513e-01
    Z_613_5_1  constraint1_6135  1
    Z_613_5_1  constraint2_6131  1
    Z_613_5_2  OBJ       -9.6853444159061795e-03
    Z_613_5_2  constraint1_6135  1
    Z_613_5_2  constraint2_6132  1
    Z_613_5_3  OBJ       -5.5397481117459436e-02
    Z_613_5_3  constraint1_6135  1
    Z_613_5_3  constraint2_6133  1
    Z_613_5_4  OBJ       -1.3230553514012902e-01
    Z_613_5_4  constraint1_6135  1
    Z_613_2_0  OBJ       -1.6324111860429227e-03
    Z_613_2_0  constraint1_6132  1
    Z_613_2_0  constraint2_6130  1
    Z_613_2_1  OBJ       -5.2515064184461930e-03
    Z_613_2_1  constraint1_6132  1
    Z_613_2_1  constraint2_6131  1
    Z_613_2_2  OBJ       -1.0277371852018909e-01
    Z_613_2_2  constraint1_6132  1
    Z_613_2_2  constraint2_6132  1
    Z_613_2_3  OBJ       -4.7339695005478525e-03
    Z_613_2_3  constraint1_6132  1
    Z_613_2_3  constraint2_6133  1
    Z_613_2_4  OBJ       -7.8560839437477392e-01
    Z_613_2_4  constraint1_6132  1
    Z_613_3_0  OBJ       -4.0417187158583473e-02
    Z_613_3_0  constraint1_6133  1
    Z_613_3_0  constraint2_6130  1
    Z_613_3_1  OBJ       -4.4968803880073677e-01
    Z_613_3_1  constraint1_6133  1
    Z_613_3_1  constraint2_6131  1
    Z_613_3_2  OBJ       -1.1499800561571046e-02
    Z_613_3_2  constraint1_6133  1
    Z_613_3_2  constraint2_6132  1
    Z_613_3_3  OBJ       -5.0965190528657498e-03
    Z_613_3_3  constraint1_6133  1
    Z_613_3_3  constraint2_6133  1
    Z_613_3_4  OBJ       -3.9329845442624284e-01
    Z_613_3_4  constraint1_6133  1
    Z_588_0_0  OBJ       -7.3727003483162568e-01
    Z_588_0_0  constraint1_5880  1
    Z_588_0_0  constraint2_5880  1
    Z_588_0_1  OBJ       -8.3350162960414129e-02
    Z_588_0_1  constraint1_5880  1
    Z_588_0_1  constraint2_5881  1
    Z_588_0_2  OBJ       -3.3707319965409842e-02
    Z_588_0_2  constraint1_5880  1
    Z_588_0_2  constraint2_5882  1
    Z_588_0_3  OBJ       -4.0814093058293088e-02
    Z_588_0_3  constraint1_5880  1
    Z_588_0_3  constraint2_5883  1
    Z_588_0_4  OBJ       -4.8583891842573510e-03
    Z_588_0_4  constraint1_5880  1
    Z_588_1_0  OBJ       -5.9555333208926556e-04
    Z_588_1_0  constraint1_5881  1
    Z_588_1_0  constraint2_5880  1
    Z_588_1_1  OBJ       -2.2574643421771194e-03
    Z_588_1_1  constraint1_5881  1
    Z_588_1_1  constraint2_5881  1
    Z_588_1_2  OBJ       -8.3292361893948130e-01
    Z_588_1_2  constraint1_5881  1
    Z_588_1_2  constraint2_5882  1
    Z_588_1_3  OBJ       -4.5703130971404504e-04
    Z_588_1_3  constraint1_5881  1
    Z_588_1_3  constraint2_5883  1
    Z_588_1_4  OBJ       -6.3766332076538271e-02
    Z_588_1_4  constraint1_5881  1
    Z_314_0_0  OBJ       -2.8357094821578218e-02
    Z_314_0_0  constraint1_3140  1
    Z_314_0_0  constraint2_3140  1
    Z_314_0_1  OBJ       -5.8237835696831741e-01
    Z_314_0_1  constraint1_3140  1
    Z_314_0_1  constraint2_3141  1
    Z_314_0_2  OBJ       -4.2502327816160382e-02
    Z_314_0_2  constraint1_3140  1
    Z_314_0_2  constraint2_3142  1
    Z_314_0_3  OBJ       -2.3502394647010490e-03
    Z_314_0_3  constraint1_3140  1
    Z_314_0_3  constraint2_3143  1
    Z_314_0_4  OBJ       -2.4441198092924302e-01
    Z_314_0_4  constraint1_3140  1
    MARKER    'MARKER'                 'INTEND'
RHS
    RHS1      constraint1_6136  1
    RHS1      constraint1_6134  1
    RHS1      constraint1_6138  1
    RHS1      constraint1_6139  1
    RHS1      constraint1_6137  1
    RHS1      constraint1_6131  1
    RHS1      constraint1_6135  1
    RHS1      constraint1_6132  1
    RHS1      constraint1_6133  1
    RHS1      constraint1_5880  1
    RHS1      constraint1_5881  1
    RHS1      constraint1_3140  1
    RHS1      constraint2_6130  1
    RHS1      constraint2_6131  1
    RHS1      constraint2_6132  1
    RHS1      constraint2_6133  1
    RHS1      constraint2_5880  1
    RHS1      constraint2_5881  1
    RHS1      constraint2_5882  1
    RHS1      constraint2_5883  1
    RHS1      constraint2_3140  1
    RHS1      constraint2_3141  1
    RHS1      constraint2_3142  1
    RHS1      constraint2_3143  1
BOUNDS
 UP BND1      Z_613_6_0  1
 UP BND1      Z_613_6_1  1
 UP BND1      Z_613_6_2  1
 UP BND1      Z_613_6_3  1
 UP BND1      Z_613_6_4  1
 UP BND1      Z_613_4_0  1
 UP BND1      Z_613_4_1  1
 UP BND1      Z_613_4_2  1
 UP BND1      Z_613_4_3  1
 UP BND1      Z_613_4_4  1
 UP BND1      Z_613_8_0  1
 UP BND1      Z_613_8_1  1
 UP BND1      Z_613_8_2  1
 UP BND1      Z_613_8_3  1
 UP BND1      Z_613_8_4  1
 UP BND1      Z_613_9_0  1
 UP BND1      Z_613_9_1  1
 UP BND1      Z_613_9_2  1
 UP BND1      Z_613_9_3  1
 UP BND1      Z_613_9_4  1
 UP BND1      Z_613_7_0  1
 UP BND1      Z_613_7_1  1
 UP BND1      Z_613_7_2  1
 UP BND1      Z_613_7_3  1
 UP BND1      Z_613_7_4  1
 UP BND1      Z_613_1_0  1
 UP BND1      Z_613_1_1  1
 UP BND1      Z_613_1_2  1
 UP BND1      Z_613_1_3  1
 UP BND1      Z_613_1_4  1
 UP BND1      Z_613_5_0  1
 UP BND1      Z_613_5_1  1
 UP BND1      Z_613_5_2  1
 UP BND1      Z_613_5_3  1
 UP BND1      Z_613_5_4  1
 UP BND1      Z_613_2_0  1
 UP BND1      Z_613_2_1  1
 UP BND1      Z_613_2_2  1
 UP BND1      Z_613_2_3  1
 UP BND1      Z_613_2_4  1
 UP BND1      Z_613_3_0  1
 UP BND1      Z_613_3_1  1
 UP BND1      Z_613_3_2  1
 UP BND1      Z_613_3_3  1
 UP BND1      Z_613_3_4  1
 UP BND1      Z_588_0_0  1
 UP BND1      Z_588_0_1  1
 UP BND1      Z_588_0_2  1
 UP BND1      Z_588_0_3  1
 UP BND1      Z_588_0_4  1
 UP BND1      Z_588_1_0  1
 UP BND1      Z_588_1_1  1
 UP BND1      Z_588_1_2  1
 UP BND1      Z_588_1_3  1
 UP BND1      Z_588_1_4  1
 UP BND1      Z_314_0_0  1
 UP BND1      Z_314_0_1  1
 UP BND1      Z_314_0_2  1
 UP BND1      Z_314_0_3  1
 UP BND1      Z_314_0_4  1
QUADOBJ
    Z_613_9_0  Z_588_0_0  -3.0026790087616627e-02
    Z_613_9_1  Z_588_0_1  -3.0026790087616627e-02
    Z_613_9_2  Z_588_0_2  -3.0026790087616627e-02
    Z_613_9_3  Z_588_0_3  -3.0026790087616627e-02
    Z_613_9_4  Z_588_0_4  -3.0026790087616627e-02
    Z_613_7_0  Z_588_0_0  -1.2338547432460673e-02
    Z_613_7_1  Z_588_0_1  -1.2338547432460673e-02
    Z_613_7_2  Z_588_0_2  -1.2338547432460673e-02
    Z_613_7_3  Z_588_0_3  -1.2338547432460673e-02
    Z_613_7_4  Z_588_0_4  -1.2338547432460673e-02
    Z_613_2_0  Z_588_0_0  -5.6123160029417175e-02
    Z_613_2_1  Z_588_0_1  -5.6123160029417175e-02
    Z_613_2_2  Z_588_0_2  -5.6123160029417175e-02
    Z_613_2_3  Z_588_0_3  -5.6123160029417175e-02
    Z_613_2_4  Z_588_0_4  -5.6123160029417175e-02
    Z_613_3_0  Z_588_0_0  -8.4059808029308139e-02
    Z_613_3_1  Z_588_0_1  -8.4059808029308139e-02
    Z_613_3_2  Z_588_0_2  -8.4059808029308139e-02
    Z_613_3_3  Z_588_0_3  -8.4059808029308139e-02
    Z_613_3_4  Z_588_0_4  -8.4059808029308139e-02
ENDATA
